\ Using Xpress-MP extensions
Maximize
 5 x(1) + 2 x(2) + 3 x(3)

Subject To
primalConst(3): 2 x(1) + 4 x(3) <= 5
primalConst(2): 2 x(1) + 7 x(2) + 2 x(3) >= 10
primalConst(1): x(1) - 2 x(2) + 5 x(3) = 4

Bounds

End
